c is-sat
p cnf 10 68
6 -2 -5 0
4 10 -6 0
-6 -2 -3 0
-6 -10 -1 0
-9 -10 -8 0
-4 -1 -8 0
-7 -5 3 0
-2 -3 -4 0
-4 -9 -10 0
-3 -10 -5 0
-7 -2 -10 0
7 -5 -3 0
-7 -4 -1 0
8 10 -5 0
3 -5 -1 0
-10 -8 -7 0
10 -8 -7 0
-5 -10 -3 0
4 -8 -3 0
-8 9 2 0
-4 10 -7 0
1 -8 -4 0
-7 -1 -9 0
-9 -7 10 0
2 -4 -1 0
-6 10 -3 0
-7 -4 5 0
-9 4 10 0
-2 -7 3 0
6 -10 2 0
-5 -9 -3 0
-10 -4 -1 0
-3 -1 -5 0
2 -5 -9 0
3 -1 -4 0
-9 7 2 0
-5 -1 -7 0
7 5 -10 0
9 -8 -1 0
-4 -10 -3 0
-3 -7 -10 0
10 -4 8 0
-1 -9 -8 0
-10 4 -1 0
9 10 4 0
-2 -6 1 0
5 -3 7 0
7 -10 4 0
-4 6 -10 0
6 -8 -5 0
8 -1 4 0
1 3 -7 0
-7 -3 -9 0
8 10 -7 0
-10 -7 -9 0
-2 10 -4 0
-2 -3 7 0
-8 -1 -4 0
-7 -9 -10 0
-8 5 6 0
-1 -2 -10 0
-5 -1 3 0
-5 -1 -8 0
-9 -1 -6 0
3 6 2 0
-6 4 -3 0
-10 -2 -1 0
10 5 6 0
